benchmark_instances/dzn_benchmark_instances/benchmark_instance_12-4.dzn
% Input: sequence of points
seq_points = [|3,4
              |4,4
              |6,5
              |9,5
              |3,6
              |5,6
              |6,6
              |7,6
              |9,6
              |4,7
              |5,7
              |6,7
              |7,7
              |9,7
              |8,8
              |9,8
              |7,9
              |8,9
              |2,10
              |4,10
              |6,10
              |1,11
              |2,11
              |4,11
              |5,11
              |12,0
              |5,12
              |7,12
              |12,12
              |0,6
              |0,7
              |0,10
              |1,12
              |0,0
             |];

num_points = 34;
