benchmark_instances/lp_benchmark_instances/benchmark_instance_12-4.lp
% Input: sequence of points
point(3,4).
point(4,4).
point(6,5).
point(9,5).
point(3,6).
point(5,6).
point(6,6).
point(7,6).
point(9,6).
point(4,7).
point(5,7).
point(6,7).
point(7,7).
point(9,7).
point(8,8).
point(9,8).
point(7,9).
point(8,9).
point(2,10).
point(4,10).
point(6,10).
point(1,11).
point(2,11).
point(4,11).
point(5,11).
point(12,0).
point(5,12).
point(7,12).
point(12,12).
point(0,6).
point(0,7).
point(0,10).
point(1,12).
point(0,0).
